var set of 1..31: X_INTRODUCED_0_;
var set of 1..31: X_INTRODUCED_1_;
var set of 1..31: X_INTRODUCED_2_;
var set of 1..31: X_INTRODUCED_3_;
var set of 1..31: X_INTRODUCED_4_;
var set of 1..31: X_INTRODUCED_5_;
var set of 1..31: X_INTRODUCED_6_;
var set of 1..31: X_INTRODUCED_7_;
var set of 1..31: X_INTRODUCED_8_;
var set of 1..31: X_INTRODUCED_9_;
var set of 1..31: X_INTRODUCED_10_;
var set of 1..31: X_INTRODUCED_11_;
var set of 1..31: X_INTRODUCED_12_;
var set of 1..31: X_INTRODUCED_13_;
var set of 1..31: X_INTRODUCED_14_;
var set of 1..31: X_INTRODUCED_30_ ::var_is_introduced :: is_defined_var;
var set of 1..31: X_INTRODUCED_32_ ::var_is_introduced :: is_defined_var;
var set of 1..31: X_INTRODUCED_34_ ::var_is_introduced :: is_defined_var;
var set of 1..31: X_INTRODUCED_36_ ::var_is_introduced :: is_defined_var;
var set of 1..31: X_INTRODUCED_38_ ::var_is_introduced :: is_defined_var;
var set of 1..31: X_INTRODUCED_40_ ::var_is_introduced :: is_defined_var;
var set of 1..31: X_INTRODUCED_42_ ::var_is_introduced :: is_defined_var;
var set of 1..31: X_INTRODUCED_44_ ::var_is_introduced :: is_defined_var;
var set of 1..31: X_INTRODUCED_46_ ::var_is_introduced :: is_defined_var;
var set of 1..31: X_INTRODUCED_48_ ::var_is_introduced :: is_defined_var;
var set of 1..31: X_INTRODUCED_50_ ::var_is_introduced :: is_defined_var;
var set of 1..31: X_INTRODUCED_52_ ::var_is_introduced :: is_defined_var;
var set of 1..31: X_INTRODUCED_54_ ::var_is_introduced :: is_defined_var;
var set of 1..31: X_INTRODUCED_56_ ::var_is_introduced :: is_defined_var;
var set of 1..31: X_INTRODUCED_58_ ::var_is_introduced :: is_defined_var;
var set of 1..31: X_INTRODUCED_60_ ::var_is_introduced :: is_defined_var;
var set of 1..31: X_INTRODUCED_62_ ::var_is_introduced :: is_defined_var;
var set of 1..31: X_INTRODUCED_64_ ::var_is_introduced :: is_defined_var;
var set of 1..31: X_INTRODUCED_66_ ::var_is_introduced :: is_defined_var;
var set of 1..31: X_INTRODUCED_68_ ::var_is_introduced :: is_defined_var;
var set of 1..31: X_INTRODUCED_70_ ::var_is_introduced :: is_defined_var;
var set of 1..31: X_INTRODUCED_72_ ::var_is_introduced :: is_defined_var;
var set of 1..31: X_INTRODUCED_74_ ::var_is_introduced :: is_defined_var;
var set of 1..31: X_INTRODUCED_76_ ::var_is_introduced :: is_defined_var;
var set of 1..31: X_INTRODUCED_78_ ::var_is_introduced :: is_defined_var;
var set of 1..31: X_INTRODUCED_80_ ::var_is_introduced :: is_defined_var;
var set of 1..31: X_INTRODUCED_82_ ::var_is_introduced :: is_defined_var;
var set of 1..31: X_INTRODUCED_84_ ::var_is_introduced :: is_defined_var;
var set of 1..31: X_INTRODUCED_86_ ::var_is_introduced :: is_defined_var;
var set of 1..31: X_INTRODUCED_88_ ::var_is_introduced :: is_defined_var;
var set of 1..31: X_INTRODUCED_90_ ::var_is_introduced :: is_defined_var;
var set of 1..31: X_INTRODUCED_92_ ::var_is_introduced :: is_defined_var;
var set of 1..31: X_INTRODUCED_94_ ::var_is_introduced :: is_defined_var;
var set of 1..31: X_INTRODUCED_96_ ::var_is_introduced :: is_defined_var;
var set of 1..31: X_INTRODUCED_98_ ::var_is_introduced :: is_defined_var;
var set of 1..31: X_INTRODUCED_100_ ::var_is_introduced :: is_defined_var;
var set of 1..31: X_INTRODUCED_102_ ::var_is_introduced :: is_defined_var;
var set of 1..31: X_INTRODUCED_104_ ::var_is_introduced :: is_defined_var;
var set of 1..31: X_INTRODUCED_106_ ::var_is_introduced :: is_defined_var;
var set of 1..31: X_INTRODUCED_108_ ::var_is_introduced :: is_defined_var;
var set of 1..31: X_INTRODUCED_110_ ::var_is_introduced :: is_defined_var;
var set of 1..31: X_INTRODUCED_112_ ::var_is_introduced :: is_defined_var;
var set of 1..31: X_INTRODUCED_114_ ::var_is_introduced :: is_defined_var;
var set of 1..31: X_INTRODUCED_116_ ::var_is_introduced :: is_defined_var;
var set of 1..31: X_INTRODUCED_118_ ::var_is_introduced :: is_defined_var;
var set of 1..31: X_INTRODUCED_120_ ::var_is_introduced :: is_defined_var;
var set of 1..31: X_INTRODUCED_122_ ::var_is_introduced :: is_defined_var;
var set of 1..31: X_INTRODUCED_124_ ::var_is_introduced :: is_defined_var;
var set of 1..31: X_INTRODUCED_126_ ::var_is_introduced :: is_defined_var;
var set of 1..31: X_INTRODUCED_128_ ::var_is_introduced :: is_defined_var;
var set of 1..31: X_INTRODUCED_130_ ::var_is_introduced :: is_defined_var;
var set of 1..31: X_INTRODUCED_132_ ::var_is_introduced :: is_defined_var;
var set of 1..31: X_INTRODUCED_134_ ::var_is_introduced :: is_defined_var;
var set of 1..31: X_INTRODUCED_136_ ::var_is_introduced :: is_defined_var;
var set of 1..31: X_INTRODUCED_138_ ::var_is_introduced :: is_defined_var;
var set of 1..31: X_INTRODUCED_140_ ::var_is_introduced :: is_defined_var;
var set of 1..31: X_INTRODUCED_142_ ::var_is_introduced :: is_defined_var;
var set of 1..31: X_INTRODUCED_144_ ::var_is_introduced :: is_defined_var;
var set of 1..31: X_INTRODUCED_146_ ::var_is_introduced :: is_defined_var;
var set of 1..31: X_INTRODUCED_148_ ::var_is_introduced :: is_defined_var;
var set of 1..31: X_INTRODUCED_150_ ::var_is_introduced :: is_defined_var;
var set of 1..31: X_INTRODUCED_152_ ::var_is_introduced :: is_defined_var;
var set of 1..31: X_INTRODUCED_154_ ::var_is_introduced :: is_defined_var;
var set of 1..31: X_INTRODUCED_156_ ::var_is_introduced :: is_defined_var;
var set of 1..31: X_INTRODUCED_158_ ::var_is_introduced :: is_defined_var;
var set of 1..31: X_INTRODUCED_160_ ::var_is_introduced :: is_defined_var;
var set of 1..31: X_INTRODUCED_162_ ::var_is_introduced :: is_defined_var;
var set of 1..31: X_INTRODUCED_164_ ::var_is_introduced :: is_defined_var;
var set of 1..31: X_INTRODUCED_166_ ::var_is_introduced :: is_defined_var;
var set of 1..31: X_INTRODUCED_168_ ::var_is_introduced :: is_defined_var;
var set of 1..31: X_INTRODUCED_170_ ::var_is_introduced :: is_defined_var;
var set of 1..31: X_INTRODUCED_172_ ::var_is_introduced :: is_defined_var;
var set of 1..31: X_INTRODUCED_174_ ::var_is_introduced :: is_defined_var;
var set of 1..31: X_INTRODUCED_176_ ::var_is_introduced :: is_defined_var;
var set of 1..31: X_INTRODUCED_178_ ::var_is_introduced :: is_defined_var;
var set of 1..31: X_INTRODUCED_180_ ::var_is_introduced :: is_defined_var;
var set of 1..31: X_INTRODUCED_182_ ::var_is_introduced :: is_defined_var;
var set of 1..31: X_INTRODUCED_184_ ::var_is_introduced :: is_defined_var;
var set of 1..31: X_INTRODUCED_186_ ::var_is_introduced :: is_defined_var;
var set of 1..31: X_INTRODUCED_188_ ::var_is_introduced :: is_defined_var;
var set of 1..31: X_INTRODUCED_190_ ::var_is_introduced :: is_defined_var;
var set of 1..31: X_INTRODUCED_192_ ::var_is_introduced :: is_defined_var;
var set of 1..31: X_INTRODUCED_194_ ::var_is_introduced :: is_defined_var;
var set of 1..31: X_INTRODUCED_196_ ::var_is_introduced :: is_defined_var;
var set of 1..31: X_INTRODUCED_198_ ::var_is_introduced :: is_defined_var;
var set of 1..31: X_INTRODUCED_200_ ::var_is_introduced :: is_defined_var;
var set of 1..31: X_INTRODUCED_202_ ::var_is_introduced :: is_defined_var;
var set of 1..31: X_INTRODUCED_204_ ::var_is_introduced :: is_defined_var;
var set of 1..31: X_INTRODUCED_206_ ::var_is_introduced :: is_defined_var;
var set of 1..31: X_INTRODUCED_208_ ::var_is_introduced :: is_defined_var;
var set of 1..31: X_INTRODUCED_210_ ::var_is_introduced :: is_defined_var;
var set of 1..31: X_INTRODUCED_212_ ::var_is_introduced :: is_defined_var;
var set of 1..31: X_INTRODUCED_214_ ::var_is_introduced :: is_defined_var;
var set of 1..31: X_INTRODUCED_216_ ::var_is_introduced :: is_defined_var;
var set of 1..31: X_INTRODUCED_218_ ::var_is_introduced :: is_defined_var;
var set of 1..31: X_INTRODUCED_220_ ::var_is_introduced :: is_defined_var;
var set of 1..31: X_INTRODUCED_222_ ::var_is_introduced :: is_defined_var;
var set of 1..31: X_INTRODUCED_224_ ::var_is_introduced :: is_defined_var;
var set of 1..31: X_INTRODUCED_226_ ::var_is_introduced :: is_defined_var;
var set of 1..31: X_INTRODUCED_228_ ::var_is_introduced :: is_defined_var;
var set of 1..31: X_INTRODUCED_230_ ::var_is_introduced :: is_defined_var;
var set of 1..31: X_INTRODUCED_232_ ::var_is_introduced :: is_defined_var;
var set of 1..31: X_INTRODUCED_234_ ::var_is_introduced :: is_defined_var;
var set of 1..31: X_INTRODUCED_236_ ::var_is_introduced :: is_defined_var;
var set of 1..31: X_INTRODUCED_238_ ::var_is_introduced :: is_defined_var;
array [1..15] of var set of int: cards:: output_array([1..15]) = [X_INTRODUCED_0_,X_INTRODUCED_1_,X_INTRODUCED_2_,X_INTRODUCED_3_,X_INTRODUCED_4_,X_INTRODUCED_5_,X_INTRODUCED_6_,X_INTRODUCED_7_,X_INTRODUCED_8_,X_INTRODUCED_9_,X_INTRODUCED_10_,X_INTRODUCED_11_,X_INTRODUCED_12_,X_INTRODUCED_13_,X_INTRODUCED_14_];
constraint set_card(X_INTRODUCED_0_,5);
constraint set_card(X_INTRODUCED_1_,5);
constraint set_card(X_INTRODUCED_2_,5);
constraint set_card(X_INTRODUCED_3_,5);
constraint set_card(X_INTRODUCED_4_,5);
constraint set_card(X_INTRODUCED_5_,5);
constraint set_card(X_INTRODUCED_6_,5);
constraint set_card(X_INTRODUCED_7_,5);
constraint set_card(X_INTRODUCED_8_,5);
constraint set_card(X_INTRODUCED_9_,5);
constraint set_card(X_INTRODUCED_10_,5);
constraint set_card(X_INTRODUCED_11_,5);
constraint set_card(X_INTRODUCED_12_,5);
constraint set_card(X_INTRODUCED_13_,5);
constraint set_card(X_INTRODUCED_14_,5);
constraint set_card(X_INTRODUCED_30_,1);
constraint set_card(X_INTRODUCED_32_,1);
constraint set_card(X_INTRODUCED_34_,1);
constraint set_card(X_INTRODUCED_36_,1);
constraint set_card(X_INTRODUCED_38_,1);
constraint set_card(X_INTRODUCED_40_,1);
constraint set_card(X_INTRODUCED_42_,1);
constraint set_card(X_INTRODUCED_44_,1);
constraint set_card(X_INTRODUCED_46_,1);
constraint set_card(X_INTRODUCED_48_,1);
constraint set_card(X_INTRODUCED_50_,1);
constraint set_card(X_INTRODUCED_52_,1);
constraint set_card(X_INTRODUCED_54_,1);
constraint set_card(X_INTRODUCED_56_,1);
constraint set_card(X_INTRODUCED_58_,1);
constraint set_card(X_INTRODUCED_60_,1);
constraint set_card(X_INTRODUCED_62_,1);
constraint set_card(X_INTRODUCED_64_,1);
constraint set_card(X_INTRODUCED_66_,1);
constraint set_card(X_INTRODUCED_68_,1);
constraint set_card(X_INTRODUCED_70_,1);
constraint set_card(X_INTRODUCED_72_,1);
constraint set_card(X_INTRODUCED_74_,1);
constraint set_card(X_INTRODUCED_76_,1);
constraint set_card(X_INTRODUCED_78_,1);
constraint set_card(X_INTRODUCED_80_,1);
constraint set_card(X_INTRODUCED_82_,1);
constraint set_card(X_INTRODUCED_84_,1);
constraint set_card(X_INTRODUCED_86_,1);
constraint set_card(X_INTRODUCED_88_,1);
constraint set_card(X_INTRODUCED_90_,1);
constraint set_card(X_INTRODUCED_92_,1);
constraint set_card(X_INTRODUCED_94_,1);
constraint set_card(X_INTRODUCED_96_,1);
constraint set_card(X_INTRODUCED_98_,1);
constraint set_card(X_INTRODUCED_100_,1);
constraint set_card(X_INTRODUCED_102_,1);
constraint set_card(X_INTRODUCED_104_,1);
constraint set_card(X_INTRODUCED_106_,1);
constraint set_card(X_INTRODUCED_108_,1);
constraint set_card(X_INTRODUCED_110_,1);
constraint set_card(X_INTRODUCED_112_,1);
constraint set_card(X_INTRODUCED_114_,1);
constraint set_card(X_INTRODUCED_116_,1);
constraint set_card(X_INTRODUCED_118_,1);
constraint set_card(X_INTRODUCED_120_,1);
constraint set_card(X_INTRODUCED_122_,1);
constraint set_card(X_INTRODUCED_124_,1);
constraint set_card(X_INTRODUCED_126_,1);
constraint set_card(X_INTRODUCED_128_,1);
constraint set_card(X_INTRODUCED_130_,1);
constraint set_card(X_INTRODUCED_132_,1);
constraint set_card(X_INTRODUCED_134_,1);
constraint set_card(X_INTRODUCED_136_,1);
constraint set_card(X_INTRODUCED_138_,1);
constraint set_card(X_INTRODUCED_140_,1);
constraint set_card(X_INTRODUCED_142_,1);
constraint set_card(X_INTRODUCED_144_,1);
constraint set_card(X_INTRODUCED_146_,1);
constraint set_card(X_INTRODUCED_148_,1);
constraint set_card(X_INTRODUCED_150_,1);
constraint set_card(X_INTRODUCED_152_,1);
constraint set_card(X_INTRODUCED_154_,1);
constraint set_card(X_INTRODUCED_156_,1);
constraint set_card(X_INTRODUCED_158_,1);
constraint set_card(X_INTRODUCED_160_,1);
constraint set_card(X_INTRODUCED_162_,1);
constraint set_card(X_INTRODUCED_164_,1);
constraint set_card(X_INTRODUCED_166_,1);
constraint set_card(X_INTRODUCED_168_,1);
constraint set_card(X_INTRODUCED_170_,1);
constraint set_card(X_INTRODUCED_172_,1);
constraint set_card(X_INTRODUCED_174_,1);
constraint set_card(X_INTRODUCED_176_,1);
constraint set_card(X_INTRODUCED_178_,1);
constraint set_card(X_INTRODUCED_180_,1);
constraint set_card(X_INTRODUCED_182_,1);
constraint set_card(X_INTRODUCED_184_,1);
constraint set_card(X_INTRODUCED_186_,1);
constraint set_card(X_INTRODUCED_188_,1);
constraint set_card(X_INTRODUCED_190_,1);
constraint set_card(X_INTRODUCED_192_,1);
constraint set_card(X_INTRODUCED_194_,1);
constraint set_card(X_INTRODUCED_196_,1);
constraint set_card(X_INTRODUCED_198_,1);
constraint set_card(X_INTRODUCED_200_,1);
constraint set_card(X_INTRODUCED_202_,1);
constraint set_card(X_INTRODUCED_204_,1);
constraint set_card(X_INTRODUCED_206_,1);
constraint set_card(X_INTRODUCED_208_,1);
constraint set_card(X_INTRODUCED_210_,1);
constraint set_card(X_INTRODUCED_212_,1);
constraint set_card(X_INTRODUCED_214_,1);
constraint set_card(X_INTRODUCED_216_,1);
constraint set_card(X_INTRODUCED_218_,1);
constraint set_card(X_INTRODUCED_220_,1);
constraint set_card(X_INTRODUCED_222_,1);
constraint set_card(X_INTRODUCED_224_,1);
constraint set_card(X_INTRODUCED_226_,1);
constraint set_card(X_INTRODUCED_228_,1);
constraint set_card(X_INTRODUCED_230_,1);
constraint set_card(X_INTRODUCED_232_,1);
constraint set_card(X_INTRODUCED_234_,1);
constraint set_card(X_INTRODUCED_236_,1);
constraint set_card(X_INTRODUCED_238_,1);
constraint set_ne(X_INTRODUCED_0_,X_INTRODUCED_1_);
constraint set_ne(X_INTRODUCED_0_,X_INTRODUCED_2_);
constraint set_ne(X_INTRODUCED_0_,X_INTRODUCED_3_);
constraint set_ne(X_INTRODUCED_0_,X_INTRODUCED_4_);
constraint set_ne(X_INTRODUCED_0_,X_INTRODUCED_5_);
constraint set_ne(X_INTRODUCED_0_,X_INTRODUCED_6_);
constraint set_ne(X_INTRODUCED_0_,X_INTRODUCED_7_);
constraint set_ne(X_INTRODUCED_0_,X_INTRODUCED_8_);
constraint set_ne(X_INTRODUCED_0_,X_INTRODUCED_9_);
constraint set_ne(X_INTRODUCED_0_,X_INTRODUCED_10_);
constraint set_ne(X_INTRODUCED_0_,X_INTRODUCED_11_);
constraint set_ne(X_INTRODUCED_0_,X_INTRODUCED_12_);
constraint set_ne(X_INTRODUCED_0_,X_INTRODUCED_13_);
constraint set_ne(X_INTRODUCED_0_,X_INTRODUCED_14_);
constraint set_ne(X_INTRODUCED_1_,X_INTRODUCED_2_);
constraint set_ne(X_INTRODUCED_1_,X_INTRODUCED_3_);
constraint set_ne(X_INTRODUCED_1_,X_INTRODUCED_4_);
constraint set_ne(X_INTRODUCED_1_,X_INTRODUCED_5_);
constraint set_ne(X_INTRODUCED_1_,X_INTRODUCED_6_);
constraint set_ne(X_INTRODUCED_1_,X_INTRODUCED_7_);
constraint set_ne(X_INTRODUCED_1_,X_INTRODUCED_8_);
constraint set_ne(X_INTRODUCED_1_,X_INTRODUCED_9_);
constraint set_ne(X_INTRODUCED_1_,X_INTRODUCED_10_);
constraint set_ne(X_INTRODUCED_1_,X_INTRODUCED_11_);
constraint set_ne(X_INTRODUCED_1_,X_INTRODUCED_12_);
constraint set_ne(X_INTRODUCED_1_,X_INTRODUCED_13_);
constraint set_ne(X_INTRODUCED_1_,X_INTRODUCED_14_);
constraint set_ne(X_INTRODUCED_2_,X_INTRODUCED_3_);
constraint set_ne(X_INTRODUCED_2_,X_INTRODUCED_4_);
constraint set_ne(X_INTRODUCED_2_,X_INTRODUCED_5_);
constraint set_ne(X_INTRODUCED_2_,X_INTRODUCED_6_);
constraint set_ne(X_INTRODUCED_2_,X_INTRODUCED_7_);
constraint set_ne(X_INTRODUCED_2_,X_INTRODUCED_8_);
constraint set_ne(X_INTRODUCED_2_,X_INTRODUCED_9_);
constraint set_ne(X_INTRODUCED_2_,X_INTRODUCED_10_);
constraint set_ne(X_INTRODUCED_2_,X_INTRODUCED_11_);
constraint set_ne(X_INTRODUCED_2_,X_INTRODUCED_12_);
constraint set_ne(X_INTRODUCED_2_,X_INTRODUCED_13_);
constraint set_ne(X_INTRODUCED_2_,X_INTRODUCED_14_);
constraint set_ne(X_INTRODUCED_3_,X_INTRODUCED_4_);
constraint set_ne(X_INTRODUCED_3_,X_INTRODUCED_5_);
constraint set_ne(X_INTRODUCED_3_,X_INTRODUCED_6_);
constraint set_ne(X_INTRODUCED_3_,X_INTRODUCED_7_);
constraint set_ne(X_INTRODUCED_3_,X_INTRODUCED_8_);
constraint set_ne(X_INTRODUCED_3_,X_INTRODUCED_9_);
constraint set_ne(X_INTRODUCED_3_,X_INTRODUCED_10_);
constraint set_ne(X_INTRODUCED_3_,X_INTRODUCED_11_);
constraint set_ne(X_INTRODUCED_3_,X_INTRODUCED_12_);
constraint set_ne(X_INTRODUCED_3_,X_INTRODUCED_13_);
constraint set_ne(X_INTRODUCED_3_,X_INTRODUCED_14_);
constraint set_ne(X_INTRODUCED_4_,X_INTRODUCED_5_);
constraint set_ne(X_INTRODUCED_4_,X_INTRODUCED_6_);
constraint set_ne(X_INTRODUCED_4_,X_INTRODUCED_7_);
constraint set_ne(X_INTRODUCED_4_,X_INTRODUCED_8_);
constraint set_ne(X_INTRODUCED_4_,X_INTRODUCED_9_);
constraint set_ne(X_INTRODUCED_4_,X_INTRODUCED_10_);
constraint set_ne(X_INTRODUCED_4_,X_INTRODUCED_11_);
constraint set_ne(X_INTRODUCED_4_,X_INTRODUCED_12_);
constraint set_ne(X_INTRODUCED_4_,X_INTRODUCED_13_);
constraint set_ne(X_INTRODUCED_4_,X_INTRODUCED_14_);
constraint set_ne(X_INTRODUCED_5_,X_INTRODUCED_6_);
constraint set_ne(X_INTRODUCED_5_,X_INTRODUCED_7_);
constraint set_ne(X_INTRODUCED_5_,X_INTRODUCED_8_);
constraint set_ne(X_INTRODUCED_5_,X_INTRODUCED_9_);
constraint set_ne(X_INTRODUCED_5_,X_INTRODUCED_10_);
constraint set_ne(X_INTRODUCED_5_,X_INTRODUCED_11_);
constraint set_ne(X_INTRODUCED_5_,X_INTRODUCED_12_);
constraint set_ne(X_INTRODUCED_5_,X_INTRODUCED_13_);
constraint set_ne(X_INTRODUCED_5_,X_INTRODUCED_14_);
constraint set_ne(X_INTRODUCED_6_,X_INTRODUCED_7_);
constraint set_ne(X_INTRODUCED_6_,X_INTRODUCED_8_);
constraint set_ne(X_INTRODUCED_6_,X_INTRODUCED_9_);
constraint set_ne(X_INTRODUCED_6_,X_INTRODUCED_10_);
constraint set_ne(X_INTRODUCED_6_,X_INTRODUCED_11_);
constraint set_ne(X_INTRODUCED_6_,X_INTRODUCED_12_);
constraint set_ne(X_INTRODUCED_6_,X_INTRODUCED_13_);
constraint set_ne(X_INTRODUCED_6_,X_INTRODUCED_14_);
constraint set_ne(X_INTRODUCED_7_,X_INTRODUCED_8_);
constraint set_ne(X_INTRODUCED_7_,X_INTRODUCED_9_);
constraint set_ne(X_INTRODUCED_7_,X_INTRODUCED_10_);
constraint set_ne(X_INTRODUCED_7_,X_INTRODUCED_11_);
constraint set_ne(X_INTRODUCED_7_,X_INTRODUCED_12_);
constraint set_ne(X_INTRODUCED_7_,X_INTRODUCED_13_);
constraint set_ne(X_INTRODUCED_7_,X_INTRODUCED_14_);
constraint set_ne(X_INTRODUCED_8_,X_INTRODUCED_9_);
constraint set_ne(X_INTRODUCED_8_,X_INTRODUCED_10_);
constraint set_ne(X_INTRODUCED_8_,X_INTRODUCED_11_);
constraint set_ne(X_INTRODUCED_8_,X_INTRODUCED_12_);
constraint set_ne(X_INTRODUCED_8_,X_INTRODUCED_13_);
constraint set_ne(X_INTRODUCED_8_,X_INTRODUCED_14_);
constraint set_ne(X_INTRODUCED_9_,X_INTRODUCED_10_);
constraint set_ne(X_INTRODUCED_9_,X_INTRODUCED_11_);
constraint set_ne(X_INTRODUCED_9_,X_INTRODUCED_12_);
constraint set_ne(X_INTRODUCED_9_,X_INTRODUCED_13_);
constraint set_ne(X_INTRODUCED_9_,X_INTRODUCED_14_);
constraint set_ne(X_INTRODUCED_10_,X_INTRODUCED_11_);
constraint set_ne(X_INTRODUCED_10_,X_INTRODUCED_12_);
constraint set_ne(X_INTRODUCED_10_,X_INTRODUCED_13_);
constraint set_ne(X_INTRODUCED_10_,X_INTRODUCED_14_);
constraint set_ne(X_INTRODUCED_11_,X_INTRODUCED_12_);
constraint set_ne(X_INTRODUCED_11_,X_INTRODUCED_13_);
constraint set_ne(X_INTRODUCED_11_,X_INTRODUCED_14_);
constraint set_ne(X_INTRODUCED_12_,X_INTRODUCED_13_);
constraint set_ne(X_INTRODUCED_12_,X_INTRODUCED_14_);
constraint set_ne(X_INTRODUCED_13_,X_INTRODUCED_14_);
constraint set_intersect(X_INTRODUCED_0_,X_INTRODUCED_1_,X_INTRODUCED_30_):: defines_var(X_INTRODUCED_30_);
constraint set_intersect(X_INTRODUCED_0_,X_INTRODUCED_2_,X_INTRODUCED_32_):: defines_var(X_INTRODUCED_32_);
constraint set_intersect(X_INTRODUCED_0_,X_INTRODUCED_3_,X_INTRODUCED_34_):: defines_var(X_INTRODUCED_34_);
constraint set_intersect(X_INTRODUCED_0_,X_INTRODUCED_4_,X_INTRODUCED_36_):: defines_var(X_INTRODUCED_36_);
constraint set_intersect(X_INTRODUCED_0_,X_INTRODUCED_5_,X_INTRODUCED_38_):: defines_var(X_INTRODUCED_38_);
constraint set_intersect(X_INTRODUCED_0_,X_INTRODUCED_6_,X_INTRODUCED_40_):: defines_var(X_INTRODUCED_40_);
constraint set_intersect(X_INTRODUCED_0_,X_INTRODUCED_7_,X_INTRODUCED_42_):: defines_var(X_INTRODUCED_42_);
constraint set_intersect(X_INTRODUCED_0_,X_INTRODUCED_8_,X_INTRODUCED_44_):: defines_var(X_INTRODUCED_44_);
constraint set_intersect(X_INTRODUCED_0_,X_INTRODUCED_9_,X_INTRODUCED_46_):: defines_var(X_INTRODUCED_46_);
constraint set_intersect(X_INTRODUCED_0_,X_INTRODUCED_10_,X_INTRODUCED_48_):: defines_var(X_INTRODUCED_48_);
constraint set_intersect(X_INTRODUCED_0_,X_INTRODUCED_11_,X_INTRODUCED_50_):: defines_var(X_INTRODUCED_50_);
constraint set_intersect(X_INTRODUCED_0_,X_INTRODUCED_12_,X_INTRODUCED_52_):: defines_var(X_INTRODUCED_52_);
constraint set_intersect(X_INTRODUCED_0_,X_INTRODUCED_13_,X_INTRODUCED_54_):: defines_var(X_INTRODUCED_54_);
constraint set_intersect(X_INTRODUCED_0_,X_INTRODUCED_14_,X_INTRODUCED_56_):: defines_var(X_INTRODUCED_56_);
constraint set_intersect(X_INTRODUCED_1_,X_INTRODUCED_2_,X_INTRODUCED_58_):: defines_var(X_INTRODUCED_58_);
constraint set_intersect(X_INTRODUCED_1_,X_INTRODUCED_3_,X_INTRODUCED_60_):: defines_var(X_INTRODUCED_60_);
constraint set_intersect(X_INTRODUCED_1_,X_INTRODUCED_4_,X_INTRODUCED_62_):: defines_var(X_INTRODUCED_62_);
constraint set_intersect(X_INTRODUCED_1_,X_INTRODUCED_5_,X_INTRODUCED_64_):: defines_var(X_INTRODUCED_64_);
constraint set_intersect(X_INTRODUCED_1_,X_INTRODUCED_6_,X_INTRODUCED_66_):: defines_var(X_INTRODUCED_66_);
constraint set_intersect(X_INTRODUCED_1_,X_INTRODUCED_7_,X_INTRODUCED_68_):: defines_var(X_INTRODUCED_68_);
constraint set_intersect(X_INTRODUCED_1_,X_INTRODUCED_8_,X_INTRODUCED_70_):: defines_var(X_INTRODUCED_70_);
constraint set_intersect(X_INTRODUCED_1_,X_INTRODUCED_9_,X_INTRODUCED_72_):: defines_var(X_INTRODUCED_72_);
constraint set_intersect(X_INTRODUCED_1_,X_INTRODUCED_10_,X_INTRODUCED_74_):: defines_var(X_INTRODUCED_74_);
constraint set_intersect(X_INTRODUCED_1_,X_INTRODUCED_11_,X_INTRODUCED_76_):: defines_var(X_INTRODUCED_76_);
constraint set_intersect(X_INTRODUCED_1_,X_INTRODUCED_12_,X_INTRODUCED_78_):: defines_var(X_INTRODUCED_78_);
constraint set_intersect(X_INTRODUCED_1_,X_INTRODUCED_13_,X_INTRODUCED_80_):: defines_var(X_INTRODUCED_80_);
constraint set_intersect(X_INTRODUCED_1_,X_INTRODUCED_14_,X_INTRODUCED_82_):: defines_var(X_INTRODUCED_82_);
constraint set_intersect(X_INTRODUCED_2_,X_INTRODUCED_3_,X_INTRODUCED_84_):: defines_var(X_INTRODUCED_84_);
constraint set_intersect(X_INTRODUCED_2_,X_INTRODUCED_4_,X_INTRODUCED_86_):: defines_var(X_INTRODUCED_86_);
constraint set_intersect(X_INTRODUCED_2_,X_INTRODUCED_5_,X_INTRODUCED_88_):: defines_var(X_INTRODUCED_88_);
constraint set_intersect(X_INTRODUCED_2_,X_INTRODUCED_6_,X_INTRODUCED_90_):: defines_var(X_INTRODUCED_90_);
constraint set_intersect(X_INTRODUCED_2_,X_INTRODUCED_7_,X_INTRODUCED_92_):: defines_var(X_INTRODUCED_92_);
constraint set_intersect(X_INTRODUCED_2_,X_INTRODUCED_8_,X_INTRODUCED_94_):: defines_var(X_INTRODUCED_94_);
constraint set_intersect(X_INTRODUCED_2_,X_INTRODUCED_9_,X_INTRODUCED_96_):: defines_var(X_INTRODUCED_96_);
constraint set_intersect(X_INTRODUCED_2_,X_INTRODUCED_10_,X_INTRODUCED_98_):: defines_var(X_INTRODUCED_98_);
constraint set_intersect(X_INTRODUCED_2_,X_INTRODUCED_11_,X_INTRODUCED_100_):: defines_var(X_INTRODUCED_100_);
constraint set_intersect(X_INTRODUCED_2_,X_INTRODUCED_12_,X_INTRODUCED_102_):: defines_var(X_INTRODUCED_102_);
constraint set_intersect(X_INTRODUCED_2_,X_INTRODUCED_13_,X_INTRODUCED_104_):: defines_var(X_INTRODUCED_104_);
constraint set_intersect(X_INTRODUCED_2_,X_INTRODUCED_14_,X_INTRODUCED_106_):: defines_var(X_INTRODUCED_106_);
constraint set_intersect(X_INTRODUCED_3_,X_INTRODUCED_4_,X_INTRODUCED_108_):: defines_var(X_INTRODUCED_108_);
constraint set_intersect(X_INTRODUCED_3_,X_INTRODUCED_5_,X_INTRODUCED_110_):: defines_var(X_INTRODUCED_110_);
constraint set_intersect(X_INTRODUCED_3_,X_INTRODUCED_6_,X_INTRODUCED_112_):: defines_var(X_INTRODUCED_112_);
constraint set_intersect(X_INTRODUCED_3_,X_INTRODUCED_7_,X_INTRODUCED_114_):: defines_var(X_INTRODUCED_114_);
constraint set_intersect(X_INTRODUCED_3_,X_INTRODUCED_8_,X_INTRODUCED_116_):: defines_var(X_INTRODUCED_116_);
constraint set_intersect(X_INTRODUCED_3_,X_INTRODUCED_9_,X_INTRODUCED_118_):: defines_var(X_INTRODUCED_118_);
constraint set_intersect(X_INTRODUCED_3_,X_INTRODUCED_10_,X_INTRODUCED_120_):: defines_var(X_INTRODUCED_120_);
constraint set_intersect(X_INTRODUCED_3_,X_INTRODUCED_11_,X_INTRODUCED_122_):: defines_var(X_INTRODUCED_122_);
constraint set_intersect(X_INTRODUCED_3_,X_INTRODUCED_12_,X_INTRODUCED_124_):: defines_var(X_INTRODUCED_124_);
constraint set_intersect(X_INTRODUCED_3_,X_INTRODUCED_13_,X_INTRODUCED_126_):: defines_var(X_INTRODUCED_126_);
constraint set_intersect(X_INTRODUCED_3_,X_INTRODUCED_14_,X_INTRODUCED_128_):: defines_var(X_INTRODUCED_128_);
constraint set_intersect(X_INTRODUCED_4_,X_INTRODUCED_5_,X_INTRODUCED_130_):: defines_var(X_INTRODUCED_130_);
constraint set_intersect(X_INTRODUCED_4_,X_INTRODUCED_6_,X_INTRODUCED_132_):: defines_var(X_INTRODUCED_132_);
constraint set_intersect(X_INTRODUCED_4_,X_INTRODUCED_7_,X_INTRODUCED_134_):: defines_var(X_INTRODUCED_134_);
constraint set_intersect(X_INTRODUCED_4_,X_INTRODUCED_8_,X_INTRODUCED_136_):: defines_var(X_INTRODUCED_136_);
constraint set_intersect(X_INTRODUCED_4_,X_INTRODUCED_9_,X_INTRODUCED_138_):: defines_var(X_INTRODUCED_138_);
constraint set_intersect(X_INTRODUCED_4_,X_INTRODUCED_10_,X_INTRODUCED_140_):: defines_var(X_INTRODUCED_140_);
constraint set_intersect(X_INTRODUCED_4_,X_INTRODUCED_11_,X_INTRODUCED_142_):: defines_var(X_INTRODUCED_142_);
constraint set_intersect(X_INTRODUCED_4_,X_INTRODUCED_12_,X_INTRODUCED_144_):: defines_var(X_INTRODUCED_144_);
constraint set_intersect(X_INTRODUCED_4_,X_INTRODUCED_13_,X_INTRODUCED_146_):: defines_var(X_INTRODUCED_146_);
constraint set_intersect(X_INTRODUCED_4_,X_INTRODUCED_14_,X_INTRODUCED_148_):: defines_var(X_INTRODUCED_148_);
constraint set_intersect(X_INTRODUCED_5_,X_INTRODUCED_6_,X_INTRODUCED_150_):: defines_var(X_INTRODUCED_150_);
constraint set_intersect(X_INTRODUCED_5_,X_INTRODUCED_7_,X_INTRODUCED_152_):: defines_var(X_INTRODUCED_152_);
constraint set_intersect(X_INTRODUCED_5_,X_INTRODUCED_8_,X_INTRODUCED_154_):: defines_var(X_INTRODUCED_154_);
constraint set_intersect(X_INTRODUCED_5_,X_INTRODUCED_9_,X_INTRODUCED_156_):: defines_var(X_INTRODUCED_156_);
constraint set_intersect(X_INTRODUCED_5_,X_INTRODUCED_10_,X_INTRODUCED_158_):: defines_var(X_INTRODUCED_158_);
constraint set_intersect(X_INTRODUCED_5_,X_INTRODUCED_11_,X_INTRODUCED_160_):: defines_var(X_INTRODUCED_160_);
constraint set_intersect(X_INTRODUCED_5_,X_INTRODUCED_12_,X_INTRODUCED_162_):: defines_var(X_INTRODUCED_162_);
constraint set_intersect(X_INTRODUCED_5_,X_INTRODUCED_13_,X_INTRODUCED_164_):: defines_var(X_INTRODUCED_164_);
constraint set_intersect(X_INTRODUCED_5_,X_INTRODUCED_14_,X_INTRODUCED_166_):: defines_var(X_INTRODUCED_166_);
constraint set_intersect(X_INTRODUCED_6_,X_INTRODUCED_7_,X_INTRODUCED_168_):: defines_var(X_INTRODUCED_168_);
constraint set_intersect(X_INTRODUCED_6_,X_INTRODUCED_8_,X_INTRODUCED_170_):: defines_var(X_INTRODUCED_170_);
constraint set_intersect(X_INTRODUCED_6_,X_INTRODUCED_9_,X_INTRODUCED_172_):: defines_var(X_INTRODUCED_172_);
constraint set_intersect(X_INTRODUCED_6_,X_INTRODUCED_10_,X_INTRODUCED_174_):: defines_var(X_INTRODUCED_174_);
constraint set_intersect(X_INTRODUCED_6_,X_INTRODUCED_11_,X_INTRODUCED_176_):: defines_var(X_INTRODUCED_176_);
constraint set_intersect(X_INTRODUCED_6_,X_INTRODUCED_12_,X_INTRODUCED_178_):: defines_var(X_INTRODUCED_178_);
constraint set_intersect(X_INTRODUCED_6_,X_INTRODUCED_13_,X_INTRODUCED_180_):: defines_var(X_INTRODUCED_180_);
constraint set_intersect(X_INTRODUCED_6_,X_INTRODUCED_14_,X_INTRODUCED_182_):: defines_var(X_INTRODUCED_182_);
constraint set_intersect(X_INTRODUCED_7_,X_INTRODUCED_8_,X_INTRODUCED_184_):: defines_var(X_INTRODUCED_184_);
constraint set_intersect(X_INTRODUCED_7_,X_INTRODUCED_9_,X_INTRODUCED_186_):: defines_var(X_INTRODUCED_186_);
constraint set_intersect(X_INTRODUCED_7_,X_INTRODUCED_10_,X_INTRODUCED_188_):: defines_var(X_INTRODUCED_188_);
constraint set_intersect(X_INTRODUCED_7_,X_INTRODUCED_11_,X_INTRODUCED_190_):: defines_var(X_INTRODUCED_190_);
constraint set_intersect(X_INTRODUCED_7_,X_INTRODUCED_12_,X_INTRODUCED_192_):: defines_var(X_INTRODUCED_192_);
constraint set_intersect(X_INTRODUCED_7_,X_INTRODUCED_13_,X_INTRODUCED_194_):: defines_var(X_INTRODUCED_194_);
constraint set_intersect(X_INTRODUCED_7_,X_INTRODUCED_14_,X_INTRODUCED_196_):: defines_var(X_INTRODUCED_196_);
constraint set_intersect(X_INTRODUCED_8_,X_INTRODUCED_9_,X_INTRODUCED_198_):: defines_var(X_INTRODUCED_198_);
constraint set_intersect(X_INTRODUCED_8_,X_INTRODUCED_10_,X_INTRODUCED_200_):: defines_var(X_INTRODUCED_200_);
constraint set_intersect(X_INTRODUCED_8_,X_INTRODUCED_11_,X_INTRODUCED_202_):: defines_var(X_INTRODUCED_202_);
constraint set_intersect(X_INTRODUCED_8_,X_INTRODUCED_12_,X_INTRODUCED_204_):: defines_var(X_INTRODUCED_204_);
constraint set_intersect(X_INTRODUCED_8_,X_INTRODUCED_13_,X_INTRODUCED_206_):: defines_var(X_INTRODUCED_206_);
constraint set_intersect(X_INTRODUCED_8_,X_INTRODUCED_14_,X_INTRODUCED_208_):: defines_var(X_INTRODUCED_208_);
constraint set_intersect(X_INTRODUCED_9_,X_INTRODUCED_10_,X_INTRODUCED_210_):: defines_var(X_INTRODUCED_210_);
constraint set_intersect(X_INTRODUCED_9_,X_INTRODUCED_11_,X_INTRODUCED_212_):: defines_var(X_INTRODUCED_212_);
constraint set_intersect(X_INTRODUCED_9_,X_INTRODUCED_12_,X_INTRODUCED_214_):: defines_var(X_INTRODUCED_214_);
constraint set_intersect(X_INTRODUCED_9_,X_INTRODUCED_13_,X_INTRODUCED_216_):: defines_var(X_INTRODUCED_216_);
constraint set_intersect(X_INTRODUCED_9_,X_INTRODUCED_14_,X_INTRODUCED_218_):: defines_var(X_INTRODUCED_218_);
constraint set_intersect(X_INTRODUCED_10_,X_INTRODUCED_11_,X_INTRODUCED_220_):: defines_var(X_INTRODUCED_220_);
constraint set_intersect(X_INTRODUCED_10_,X_INTRODUCED_12_,X_INTRODUCED_222_):: defines_var(X_INTRODUCED_222_);
constraint set_intersect(X_INTRODUCED_10_,X_INTRODUCED_13_,X_INTRODUCED_224_):: defines_var(X_INTRODUCED_224_);
constraint set_intersect(X_INTRODUCED_10_,X_INTRODUCED_14_,X_INTRODUCED_226_):: defines_var(X_INTRODUCED_226_);
constraint set_intersect(X_INTRODUCED_11_,X_INTRODUCED_12_,X_INTRODUCED_228_):: defines_var(X_INTRODUCED_228_);
constraint set_intersect(X_INTRODUCED_11_,X_INTRODUCED_13_,X_INTRODUCED_230_):: defines_var(X_INTRODUCED_230_);
constraint set_intersect(X_INTRODUCED_11_,X_INTRODUCED_14_,X_INTRODUCED_232_):: defines_var(X_INTRODUCED_232_);
constraint set_intersect(X_INTRODUCED_12_,X_INTRODUCED_13_,X_INTRODUCED_234_):: defines_var(X_INTRODUCED_234_);
constraint set_intersect(X_INTRODUCED_12_,X_INTRODUCED_14_,X_INTRODUCED_236_):: defines_var(X_INTRODUCED_236_);
constraint set_intersect(X_INTRODUCED_13_,X_INTRODUCED_14_,X_INTRODUCED_238_):: defines_var(X_INTRODUCED_238_);
solve :: set_search(cards,input_order,indomain_min,complete) satisfy;
